p cnf 19 212
1 2 3 0
1 3 5 0
1 3 6 0
1 3 12 0
1 3 13 0
1 3 15 0
1 3 18 0
1 7 15 0
1 7 18 0
1 8 18 0
1 11 15 0
1 11 18 0
1 14 15 0
1 14 18 0
1 15 16 0
1 16 18 0
2 1 4 0
2 1 10 0
2 4 5 0
2 4 6 0
2 4 7 0
2 4 8 0
2 4 11 0
2 4 12 0
2 4 13 0
2 4 14 0
2 4 16 0
2 4 17 0
2 6 10 0
2 7 10 0
2 7 15 0
2 7 18 0
2 8 10 0
2 8 18 0
2 10 11 0
2 10 14 0
2 10 16 0
2 11 15 0
2 11 18 0
2 14 15 0
2 14 18 0
2 15 16 0
2 16 18 0
4 2 9 0
5 1 10 0
5 6 10 0
5 7 10 0
5 7 15 0
5 7 18 0
5 8 10 0
5 8 18 0
5 10 11 0
5 10 14 0
5 10 16 0
5 11 15 0
5 11 18 0
5 14 15 0
5 14 18 0
5 15 16 0
5 16 18 0
6 7 15 0
6 7 18 0
6 8 18 0
6 11 15 0
6 11 18 0
6 14 15 0
6 14 18 0
6 15 16 0
6 16 18 0
7 2 3 0
7 3 5 0
7 3 6 0
7 3 12 0
7 3 13 0
8 1 9 0
8 2 3 0
8 2 9 0
8 3 5 0
8 3 6 0
8 3 9 0
8 3 12 0
8 3 13 0
8 3 15 0
8 5 9 0
8 6 9 0
8 7 9 0
8 7 15 0
8 9 11 0
8 9 12 0
8 9 13 0
8 9 14 0
8 9 16 0
8 9 17 0
8 11 15 0
8 14 15 0
8 15 16 0
9 4 8 0
9 8 10 0
9 8 18 0
10 2 9 0
10 4 5 0
10 4 12 0
10 4 13 0
10 4 17 0
10 5 9 0
10 9 12 0
10 9 13 0
10 9 17 0
11 2 3 0
11 3 5 0
11 3 6 0
11 3 12 0
11 3 13 0
12 1 10 0
12 6 10 0
12 7 10 0
12 7 15 0
12 7 18 0
12 8 10 0
12 8 18 0
12 10 11 0
12 10 14 0
12 10 16 0
12 11 15 0
12 11 18 0
12 14 15 0
12 14 18 0
12 15 16 0
12 16 18 0
13 1 10 0
13 6 10 0
13 7 10 0
13 7 15 0
13 7 18 0
13 8 10 0
13 8 18 0
13 10 11 0
13 10 14 0
13 10 16 0
13 11 15 0
13 11 18 0
13 14 15 0
13 14 18 0
13 15 16 0
13 16 18 0
14 2 3 0
14 3 5 0
14 3 6 0
14 3 12 0
14 3 13 0
15 1 4 0
15 1 9 0
15 1 10 0
15 2 9 0
15 4 5 0
15 4 6 0
15 4 8 0
15 4 12 0
15 4 13 0
15 4 17 0
15 5 9 0
15 6 9 0
15 6 10 0
15 8 10 0
15 8 18 0
15 9 12 0
15 9 13 0
15 9 17 0
16 2 3 0
16 3 5 0
16 3 6 0
16 3 12 0
16 3 13 0
17 1 10 0
17 2 3 0
17 3 5 0
17 3 6 0
17 3 10 0
17 3 12 0
17 3 13 0
17 3 15 0
17 3 18 0
17 6 10 0
17 7 10 0
17 7 15 0
17 7 18 0
17 8 10 0
17 8 18 0
17 10 11 0
17 10 14 0
17 10 16 0
17 11 15 0
17 11 18 0
17 14 15 0
17 14 18 0
17 15 16 0
17 16 18 0
18 1 4 0
18 1 9 0
18 1 10 0
18 2 9 0
18 4 5 0
18 4 6 0
18 4 12 0
18 4 13 0
18 4 17 0
18 5 9 0
18 6 9 0
18 6 10 0
18 9 12 0
18 9 13 0
18 9 17 0
